n_res = 4;
rc = [ 16, 15, 17, 16 ];
n_tasks = 30;
d = [ 8, 7, 9, 10, 3, 9, 7, 8, 8, 2, 4, 7, 4, 4, 10, 6, 10, 4, 8, 3, 5, 2, 10, 7, 5, 10, 7, 8, 2, 1 ];
rr = [| 9, 5, 5, 9, 1, 1, 1, 8, 9, 5, 6, 8, 8, 3, 3, 7, 6, 6, 1, 10, 10, 4, 8, 7, 9, 2, 8, 3, 6, 6
      | 4, 7, 9, 5, 10, 1, 7, 1, 1, 7, 4, 3, 4, 5, 8, 2, 8, 2, 4, 4, 5, 1, 3, 2, 1, 10, 2, 1, 4, 2
      | 10, 2, 3, 10, 7, 7, 4, 5, 9, 6, 8, 7, 8, 9, 1, 3, 2, 9, 6, 8, 10, 8, 8, 6, 5, 6, 2, 6, 2, 3
      | 10, 7, 10, 3, 2, 3, 4, 7, 5, 7, 3, 7, 2, 1, 3, 10, 5, 3, 8, 3, 1, 9, 6, 6, 10, 8, 4, 9, 4, 4 |];
suc = [ { 2 }, 
        { 3 }, 
        { 4 }, 
        { 5 }, 
        { 6 }, 
        { 7 }, 
        { 8 }, 
        { 9 }, 
        { 10 }, 
        { 11 }, 
        { 12 }, 
        { 13 }, 
        { 14 }, 
        { 15 }, 
        { 16 }, 
        { 17 }, 
        { 18 }, 
        { 19 }, 
        { 20 }, 
        { 21 }, 
        { 22 }, 
        { 23 }, 
        { 24 }, 
        { 25 }, 
        { 26 }, 
        { 27 }, 
        { 28 }, 
        { 29 }, 
        { 30 }, 
        {  }]; 
